param n := 120;
param c := 1000;
param : V : p w :=
   0	 442	 432
   1	 275	 265
   2	 313	 303
   3	 375	 365
   4	 292	 282
   5	 363	 353
   6	 458	 448
   7	 270	 260
   8	 302	 292
   9	 506	 496
  10	 260	 250
  11	 264	 254
  12	 373	 363
  13	 275	 265
  14	 382	 372
  15	 382	 372
  16	 308	 298
  17	 340	 330
  18	 501	 491
  19	 263	 253
  20	 266	 256
  21	 439	 429
  22	 270	 260
  23	 321	 311
  24	 402	 392
  25	 278	 268
  26	 350	 340
  27	 443	 433
  28	 261	 251
  29	 326	 316
  30	 416	 406
  31	 269	 259
  32	 345	 335
  33	 375	 365
  34	 262	 252
  35	 393	 383
  36	 403	 393
  37	 281	 271
  38	 346	 336
  39	 390	 380
  40	 313	 303
  41	 327	 317
  42	 391	 381
  43	 305	 295
  44	 334	 324
  45	 434	 424
  46	 278	 268
  47	 318	 308
  48	 508	 498
  49	 260	 250
  50	 262	 252
  51	 424	 414
  52	 265	 255
  53	 341	 331
  54	 431	 421
  55	 278	 268
  56	 321	 311
  57	 501	 491
  58	 260	 250
  59	 269	 259
  60	 503	 493
  61	 260	 250
  62	 267	 257
  63	 378	 368
  64	 275	 265
  65	 377	 367
  66	 418	 408
  67	 299	 289
  68	 313	 303
  69	 454	 444
  70	 272	 262
  71	 304	 294
  72	 413	 403
  73	 269	 259
  74	 348	 338
  75	 495	 485
  76	 263	 253
  77	 272	 262
  78	 475	 465
  79	 270	 260
  80	 285	 275
  81	 431	 421
  82	 264	 254
  83	 335	 325
  84	 361	 351
  85	 306	 296
  86	 363	 353
  87	 406	 396
  88	 286	 276
  89	 338	 328
  90	 399	 389
  91	 305	 295
  92	 326	 316
  93	 493	 483
  94	 261	 251
  95	 276	 266
  96	 408	 398
  97	 299	 289
  98	 323	 313
  99	 373	 363
 100	 318	 308
 101	 339	 329
 102	 409	 399
 103	 289	 279
 104	 332	 322
 105	 399	 389
 106	 293	 283
 107	 338	 328
 108	 412	 402
 109	 261	 251
 110	 357	 347
 111	 367	 357
 112	 290	 280
 113	 373	 363
 114	 437	 427
 115	 287	 277
 116	 306	 296
 117	 385	 375
 118	 269	 259
 119	 376	 366
;

set E :=
   0	   3
   0	   4
   0	   5
   0	   6
   0	   7
   0	   9
   0	  12
   0	  16
   0	  18
   0	  20
   0	  22
   0	  29
   0	  31
   0	  34
   0	  36
   0	  37
   0	  38
   0	  39
   0	  40
   0	  42
   0	  43
   0	  44
   0	  46
   0	  47
   0	  50
   0	  52
   0	  53
   0	  54
   0	  55
   0	  57
   0	  63
   0	  67
   0	  69
   0	  71
   0	  72
   0	  75
   0	  77
   0	  82
   0	  83
   0	  84
   0	  87
   0	  89
   0	  91
   0	  93
   0	  94
   0	  95
   0	  96
   0	  99
   0	 100
   0	 101
   0	 102
   0	 105
   0	 106
   0	 107
   0	 108
   0	 109
   0	 111
   0	 113
   0	 115
   1	   2
   1	   3
   1	   4
   1	   8
   1	  10
   1	  13
   1	  17
   1	  18
   1	  24
   1	  27
   1	  28
   1	  29
   1	  30
   1	  32
   1	  35
   1	  39
   1	  40
   1	  42
   1	  43
   1	  44
   1	  45
   1	  46
   1	  50
   1	  51
   1	  52
   1	  53
   1	  56
   1	  57
   1	  61
   1	  62
   1	  65
   1	  66
   1	  67
   1	  71
   1	  72
   1	  74
   1	  75
   1	  77
   1	  79
   1	  80
   1	  81
   1	  82
   1	  84
   1	  86
   1	  87
   1	  89
   1	  90
   1	  93
   1	  94
   1	  95
   1	  96
   1	  97
   1	  98
   1	 100
   1	 101
   1	 104
   1	 106
   1	 110
   1	 111
   1	 113
   1	 114
   1	 115
   1	 116
   1	 117
   1	 118
   2	   4
   2	   5
   2	   6
   2	   8
   2	   9
   2	  12
   2	  13
   2	  15
   2	  18
   2	  19
   2	  21
   2	  22
   2	  23
   2	  24
   2	  26
   2	  27
   2	  28
   2	  31
   2	  32
   2	  33
   2	  35
   2	  36
   2	  39
   2	  41
   2	  43
   2	  45
   2	  46
   2	  47
   2	  49
   2	  50
   2	  52
   2	  53
   2	  54
   2	  55
   2	  57
   2	  58
   2	  64
   2	  67
   2	  69
   2	  71
   2	  72
   2	  74
   2	  75
   2	  78
   2	  79
   2	  80
   2	  82
   2	  83
   2	  86
   2	  87
   2	  88
   2	  89
   2	  90
   2	  91
   2	  95
   2	  96
   2	  97
   2	  98
   2	  99
   2	 101
   2	 102
   2	 107
   2	 109
   2	 116
   2	 118
   3	   6
   3	   7
   3	  10
   3	  14
   3	  15
   3	  18
   3	  21
   3	  22
   3	  24
   3	  28
   3	  34
   3	  37
   3	  38
   3	  41
   3	  42
   3	  48
   3	  49
   3	  50
   3	  51
   3	  52
   3	  55
   3	  56
   3	  58
   3	  59
   3	  60
   3	  61
   3	  62
   3	  63
   3	  67
   3	  70
   3	  73
   3	  75
   3	  76
   3	  77
   3	  78
   3	  79
   3	  80
   3	  81
   3	  83
   3	  85
   3	  87
   3	  88
   3	  90
   3	  92
   3	  94
   3	  96
   3	  98
   3	 101
   3	 103
   3	 106
   3	 111
   3	 114
   3	 115
   3	 116
   4	   6
   4	   7
   4	   8
   4	  15
   4	  19
   4	  21
   4	  22
   4	  26
   4	  27
   4	  29
   4	  30
   4	  31
   4	  34
   4	  35
   4	  36
   4	  37
   4	  39
   4	  42
   4	  43
   4	  44
   4	  45
   4	  48
   4	  49
   4	  53
   4	  55
   4	  57
   4	  59
   4	  60
   4	  61
   4	  63
   4	  64
   4	  65
   4	  66
   4	  67
   4	  68
   4	  69
   4	  71
   4	  72
   4	  74
   4	  76
   4	  78
   4	  80
   4	  84
   4	  85
   4	  86
   4	  88
   4	  90
   4	  91
   4	  92
   4	  93
   4	  94
   4	  95
   4	  96
   4	  97
   4	  99
   4	 101
   4	 102
   4	 108
   4	 113
   4	 114
   4	 115
   4	 117
   4	 119
   5	   6
   5	   8
   5	  12
   5	  13
   5	  14
   5	  16
   5	  17
   5	  18
   5	  21
   5	  25
   5	  27
   5	  30
   5	  32
   5	  40
   5	  43
   5	  44
   5	  46
   5	  47
   5	  50
   5	  53
   5	  54
   5	  55
   5	  59
   5	  60
   5	  61
   5	  64
   5	  66
   5	  68
   5	  74
   5	  76
   5	  77
   5	  78
   5	  80
   5	  81
   5	  82
   5	  83
   5	  84
   5	  89
   5	  90
   5	  91
   5	  94
   5	  95
   5	  96
   5	 101
   5	 104
   5	 105
   5	 106
   5	 109
   5	 110
   5	 115
   5	 116
   5	 117
   5	 118
   6	   8
   6	   9
   6	  12
   6	  13
   6	  14
   6	  15
   6	  18
   6	  27
   6	  28
   6	  32
   6	  33
   6	  34
   6	  37
   6	  38
   6	  41
   6	  42
   6	  44
   6	  45
   6	  47
   6	  50
   6	  52
   6	  54
   6	  55
   6	  56
   6	  57
   6	  60
   6	  61
   6	  62
   6	  65
   6	  66
   6	  68
   6	  69
   6	  70
   6	  72
   6	  73
   6	  74
   6	  77
   6	  78
   6	  81
   6	  86
   6	  88
   6	  89
   6	  90
   6	  92
   6	  93
   6	  94
   6	  95
   6	  98
   6	 100
   6	 101
   6	 102
   6	 104
   6	 105
   6	 110
   6	 111
   6	 114
   6	 116
   6	 118
   6	 119
   7	   8
   7	  11
   7	  12
   7	  13
   7	  14
   7	  15
   7	  18
   7	  22
   7	  23
   7	  24
   7	  26
   7	  31
   7	  33
   7	  34
   7	  35
   7	  36
   7	  37
   7	  39
   7	  42
   7	  43
   7	  44
   7	  46
   7	  51
   7	  52
   7	  53
   7	  55
   7	  59
   7	  65
   7	  68
   7	  69
   7	  70
   7	  73
   7	  74
   7	  78
   7	  80
   7	  81
   7	  82
   7	  83
   7	  84
   7	  86
   7	  87
   7	  88
   7	  92
   7	  94
   7	  95
   7	  98
   7	 101
   7	 104
   7	 106
   7	 108
   7	 110
   7	 113
   7	 114
   7	 115
   7	 118
   8	  11
   8	  12
   8	  13
   8	  14
   8	  16
   8	  17
   8	  18
   8	  22
   8	  23
   8	  24
   8	  26
   8	  28
   8	  30
   8	  31
   8	  33
   8	  34
   8	  36
   8	  37
   8	  39
   8	  42
   8	  44
   8	  45
   8	  47
   8	  49
   8	  50
   8	  54
   8	  55
   8	  58
   8	  60
   8	  61
   8	  63
   8	  64
   8	  65
   8	  66
   8	  69
   8	  74
   8	  75
   8	  77
   8	  80
   8	  84
   8	  88
   8	  91
   8	  92
   8	  96
   8	  98
   8	  99
   8	 101
   8	 107
   8	 108
   8	 109
   8	 113
   8	 117
   8	 118
   8	 119
   9	  11
   9	  12
   9	  13
   9	  14
   9	  17
   9	  18
   9	  19
   9	  21
   9	  26
   9	  29
   9	  30
   9	  33
   9	  34
   9	  35
   9	  36
   9	  40
   9	  41
   9	  42
   9	  45
   9	  46
   9	  47
   9	  48
   9	  52
   9	  53
   9	  54
   9	  58
   9	  59
   9	  61
   9	  62
   9	  63
   9	  65
   9	  66
   9	  67
   9	  69
   9	  71
   9	  72
   9	  73
   9	  76
   9	  79
   9	  80
   9	  81
   9	  82
   9	  84
   9	  85
   9	  86
   9	  88
   9	  90
   9	  95
   9	  96
   9	  98
   9	 100
   9	 101
   9	 103
   9	 107
   9	 115
   9	 116
   9	 117
  10	  11
  10	  12
  10	  14
  10	  19
  10	  26
  10	  29
  10	  31
  10	  33
  10	  37
  10	  40
  10	  42
  10	  46
  10	  47
  10	  48
  10	  49
  10	  52
  10	  53
  10	  57
  10	  62
  10	  63
  10	  66
  10	  68
  10	  70
  10	  72
  10	  75
  10	  79
  10	  80
  10	  82
  10	  85
  10	  91
  10	  93
  10	  94
  10	  96
  10	  97
  10	 101
  10	 104
  10	 105
  10	 107
  10	 108
  10	 109
  10	 110
  10	 114
  10	 115
  10	 116
  10	 117
  10	 118
  11	  12
  11	  14
  11	  18
  11	  19
  11	  24
  11	  27
  11	  29
  11	  32
  11	  37
  11	  39
  11	  42
  11	  43
  11	  44
  11	  46
  11	  50
  11	  51
  11	  53
  11	  54
  11	  55
  11	  56
  11	  58
  11	  59
  11	  63
  11	  66
  11	  67
  11	  68
  11	  69
  11	  70
  11	  71
  11	  73
  11	  74
  11	  78
  11	  79
  11	  82
  11	  83
  11	  87
  11	  88
  11	  91
  11	  93
  11	 100
  11	 101
  11	 102
  11	 103
  11	 114
  11	 119
  12	  14
  12	  19
  12	  20
  12	  25
  12	  27
  12	  28
  12	  30
  12	  31
  12	  33
  12	  39
  12	  41
  12	  42
  12	  43
  12	  49
  12	  50
  12	  51
  12	  57
  12	  58
  12	  60
  12	  61
  12	  62
  12	  65
  12	  66
  12	  70
  12	  72
  12	  73
  12	  74
  12	  79
  12	  81
  12	  83
  12	  87
  12	  88
  12	  89
  12	  90
  12	  91
  12	  92
  12	  96
  12	  97
  12	  98
  12	 100
  12	 103
  12	 104
  12	 105
  12	 106
  12	 109
  12	 110
  12	 111
  12	 112
  12	 118
  12	 119
  13	  16
  13	  17
  13	  21
  13	  25
  13	  26
  13	  30
  13	  31
  13	  34
  13	  35
  13	  36
  13	  39
  13	  40
  13	  41
  13	  44
  13	  48
  13	  49
  13	  51
  13	  54
  13	  56
  13	  57
  13	  63
  13	  67
  13	  69
  13	  71
  13	  74
  13	  77
  13	  78
  13	  81
  13	  92
  13	  93
  13	  94
  13	  96
  13	  97
  13	  99
  13	 101
  13	 102
  13	 104
  13	 105
  13	 118
  13	 119
  14	  15
  14	  17
  14	  20
  14	  22
  14	  24
  14	  27
  14	  30
  14	  31
  14	  33
  14	  34
  14	  35
  14	  37
  14	  38
  14	  40
  14	  41
  14	  42
  14	  45
  14	  47
  14	  50
  14	  52
  14	  53
  14	  54
  14	  60
  14	  61
  14	  64
  14	  65
  14	  67
  14	  68
  14	  71
  14	  72
  14	  73
  14	  74
  14	  75
  14	  76
  14	  77
  14	  79
  14	  80
  14	  81
  14	  83
  14	  85
  14	  88
  14	  91
  14	  93
  14	  95
  14	  96
  14	 100
  14	 102
  14	 103
  14	 105
  14	 106
  14	 107
  14	 108
  14	 113
  14	 115
  14	 117
  14	 118
  14	 119
  15	  16
  15	  20
  15	  21
  15	  22
  15	  23
  15	  24
  15	  26
  15	  28
  15	  30
  15	  31
  15	  33
  15	  34
  15	  44
  15	  45
  15	  47
  15	  49
  15	  51
  15	  52
  15	  56
  15	  57
  15	  60
  15	  62
  15	  63
  15	  66
  15	  68
  15	  69
  15	  70
  15	  72
  15	  74
  15	  75
  15	  76
  15	  79
  15	  80
  15	  82
  15	  83
  15	  88
  15	  89
  15	  90
  15	  92
  15	  94
  15	  96
  15	  97
  15	 100
  15	 102
  15	 107
  15	 108
  15	 109
  15	 112
  15	 114
  15	 117
  16	  17
  16	  19
  16	  20
  16	  21
  16	  22
  16	  23
  16	  24
  16	  25
  16	  32
  16	  33
  16	  34
  16	  35
  16	  36
  16	  37
  16	  39
  16	  41
  16	  48
  16	  49
  16	  51
  16	  54
  16	  55
  16	  56
  16	  59
  16	  60
  16	  61
  16	  63
  16	  67
  16	  69
  16	  71
  16	  74
  16	  75
  16	  79
  16	  80
  16	  82
  16	  84
  16	  85
  16	  88
  16	  89
  16	  90
  16	  93
  16	  94
  16	  96
  16	  97
  16	  98
  16	 100
  16	 101
  16	 106
  16	 108
  16	 110
  16	 114
  16	 115
  16	 117
  16	 118
  16	 119
  17	  19
  17	  20
  17	  21
  17	  22
  17	  25
  17	  28
  17	  30
  17	  33
  17	  36
  17	  37
  17	  39
  17	  40
  17	  44
  17	  45
  17	  46
  17	  47
  17	  48
  17	  49
  17	  53
  17	  54
  17	  55
  17	  56
  17	  58
  17	  59
  17	  60
  17	  61
  17	  62
  17	  63
  17	  66
  17	  67
  17	  68
  17	  69
  17	  70
  17	  71
  17	  72
  17	  74
  17	  77
  17	  78
  17	  82
  17	  87
  17	  88
  17	  89
  17	  90
  17	  91
  17	  92
  17	  93
  17	  94
  17	  97
  17	 100
  17	 102
  17	 103
  17	 107
  17	 110
  17	 111
  17	 113
  17	 114
  17	 119
  18	  21
  18	  22
  18	  25
  18	  26
  18	  27
  18	  30
  18	  31
  18	  34
  18	  35
  18	  37
  18	  41
  18	  42
  18	  43
  18	  44
  18	  45
  18	  49
  18	  51
  18	  53
  18	  54
  18	  55
  18	  56
  18	  57
  18	  59
  18	  62
  18	  64
  18	  67
  18	  68
  18	  71
  18	  72
  18	  73
  18	  74
  18	  75
  18	  77
  18	  80
  18	  87
  18	  90
  18	  91
  18	  99
  18	 107
  18	 109
  18	 112
  18	 114
  18	 115
  18	 117
  18	 118
  19	  20
  19	  21
  19	  22
  19	  24
  19	  26
  19	  27
  19	  28
  19	  29
  19	  31
  19	  32
  19	  35
  19	  36
  19	  38
  19	  39
  19	  42
  19	  43
  19	  46
  19	  49
  19	  50
  19	  52
  19	  53
  19	  58
  19	  60
  19	  62
  19	  64
  19	  65
  19	  66
  19	  69
  19	  70
  19	  72
  19	  73
  19	  75
  19	  76
  19	  79
  19	  81
  19	  83
  19	  84
  19	  86
  19	  88
  19	  90
  19	  92
  19	  93
  19	  94
  19	  99
  19	 100
  19	 101
  19	 103
  19	 105
  19	 106
  19	 109
  19	 110
  19	 111
  19	 112
  19	 113
  19	 115
  19	 116
  19	 117
  19	 118
  20	  21
  20	  24
  20	  27
  20	  29
  20	  36
  20	  38
  20	  44
  20	  46
  20	  47
  20	  49
  20	  50
  20	  53
  20	  54
  20	  55
  20	  57
  20	  58
  20	  59
  20	  60
  20	  61
  20	  62
  20	  65
  20	  66
  20	  67
  20	  68
  20	  70
  20	  71
  20	  72
  20	  73
  20	  74
  20	  75
  20	  78
  20	  79
  20	  82
  20	  87
  20	  89
  20	  94
  20	  96
  20	  99
  20	 101
  20	 102
  20	 103
  20	 105
  20	 106
  20	 110
  20	 111
  20	 113
  20	 115
  20	 119
  21	  22
  21	  25
  21	  26
  21	  27
  21	  29
  21	  30
  21	  31
  21	  33
  21	  34
  21	  35
  21	  37
  21	  39
  21	  42
  21	  45
  21	  46
  21	  47
  21	  49
  21	  50
  21	  52
  21	  55
  21	  58
  21	  59
  21	  60
  21	  62
  21	  63
  21	  64
  21	  65
  21	  67
  21	  68
  21	  69
  21	  74
  21	  75
  21	  76
  21	  79
  21	  82
  21	  85
  21	  90
  21	  91
  21	  96
  21	 100
  21	 101
  21	 102
  21	 107
  21	 109
  21	 113
  21	 115
  21	 116
  21	 119
  22	  23
  22	  25
  22	  28
  22	  30
  22	  31
  22	  36
  22	  37
  22	  39
  22	  40
  22	  42
  22	  43
  22	  47
  22	  48
  22	  50
  22	  51
  22	  54
  22	  55
  22	  56
  22	  57
  22	  59
  22	  61
  22	  62
  22	  65
  22	  66
  22	  68
  22	  74
  22	  75
  22	  76
  22	  80
  22	  81
  22	  82
  22	  84
  22	  86
  22	  88
  22	  89
  22	  90
  22	  92
  22	  94
  22	  95
  22	  97
  22	  98
  22	 101
  22	 105
  22	 106
  22	 108
  22	 110
  22	 113
  22	 114
  22	 115
  22	 118
  23	  24
  23	  25
  23	  28
  23	  31
  23	  33
  23	  34
  23	  35
  23	  37
  23	  39
  23	  42
  23	  44
  23	  47
  23	  49
  23	  50
  23	  52
  23	  56
  23	  57
  23	  58
  23	  61
  23	  63
  23	  64
  23	  67
  23	  69
  23	  72
  23	  73
  23	  76
  23	  78
  23	  79
  23	  84
  23	  85
  23	  91
  23	  92
  23	  93
  23	  95
  23	  96
  23	  97
  23	  98
  23	  99
  23	 100
  23	 101
  23	 102
  23	 104
  23	 105
  23	 108
  23	 109
  23	 114
  23	 119
  24	  28
  24	  29
  24	  32
  24	  34
  24	  35
  24	  36
  24	  37
  24	  39
  24	  43
  24	  44
  24	  45
  24	  46
  24	  48
  24	  50
  24	  51
  24	  54
  24	  55
  24	  56
  24	  57
  24	  66
  24	  67
  24	  69
  24	  71
  24	  74
  24	  76
  24	  77
  24	  78
  24	  83
  24	  84
  24	  87
  24	  88
  24	  92
  24	  96
  24	 100
  24	 103
  24	 104
  24	 106
  24	 107
  24	 108
  24	 112
  24	 113
  24	 115
  24	 116
  24	 117
  25	  29
  25	  30
  25	  31
  25	  32
  25	  33
  25	  39
  25	  40
  25	  42
  25	  46
  25	  48
  25	  50
  25	  51
  25	  52
  25	  53
  25	  55
  25	  60
  25	  61
  25	  62
  25	  63
  25	  65
  25	  68
  25	  69
  25	  71
  25	  72
  25	  74
  25	  75
  25	  77
  25	  80
  25	  82
  25	  84
  25	  86
  25	  93
  25	 100
  25	 101
  25	 104
  25	 105
  25	 107
  25	 110
  25	 111
  25	 112
  25	 117
  25	 118
  26	  27
  26	  31
  26	  35
  26	  36
  26	  37
  26	  38
  26	  39
  26	  41
  26	  42
  26	  43
  26	  45
  26	  46
  26	  48
  26	  49
  26	  50
  26	  51
  26	  52
  26	  53
  26	  54
  26	  55
  26	  56
  26	  58
  26	  64
  26	  65
  26	  69
  26	  70
  26	  71
  26	  72
  26	  73
  26	  74
  26	  75
  26	  79
  26	  83
  26	  86
  26	  87
  26	  88
  26	  89
  26	  95
  26	  97
  26	 102
  26	 105
  26	 108
  26	 111
  26	 113
  26	 116
  26	 117
  26	 119
  27	  29
  27	  30
  27	  31
  27	  33
  27	  34
  27	  35
  27	  36
  27	  37
  27	  38
  27	  39
  27	  40
  27	  43
  27	  47
  27	  50
  27	  51
  27	  52
  27	  56
  27	  58
  27	  60
  27	  62
  27	  63
  27	  64
  27	  66
  27	  67
  27	  68
  27	  69
  27	  70
  27	  71
  27	  73
  27	  74
  27	  77
  27	  79
  27	  80
  27	  81
  27	  82
  27	  85
  27	  91
  27	  94
  27	  95
  27	 101
  27	 102
  27	 105
  27	 106
  27	 107
  27	 108
  27	 109
  27	 110
  27	 115
  27	 118
  27	 119
  28	  30
  28	  31
  28	  35
  28	  36
  28	  38
  28	  39
  28	  41
  28	  42
  28	  45
  28	  48
  28	  49
  28	  50
  28	  51
  28	  54
  28	  55
  28	  57
  28	  59
  28	  60
  28	  62
  28	  63
  28	  66
  28	  68
  28	  69
  28	  71
  28	  73
  28	  75
  28	  79
  28	  82
  28	  83
  28	  84
  28	  85
  28	  86
  28	  89
  28	  91
  28	  92
  28	  93
  28	  95
  28	  97
  28	  99
  28	 100
  28	 103
  28	 104
  28	 106
  28	 109
  28	 111
  28	 112
  28	 113
  28	 116
  28	 117
  28	 118
  29	  30
  29	  32
  29	  34
  29	  37
  29	  39
  29	  43
  29	  45
  29	  46
  29	  48
  29	  51
  29	  52
  29	  54
  29	  57
  29	  64
  29	  67
  29	  68
  29	  70
  29	  72
  29	  73
  29	  74
  29	  75
  29	  76
  29	  77
  29	  79
  29	  80
  29	  81
  29	  85
  29	  87
  29	  88
  29	  89
  29	  90
  29	  91
  29	  97
  29	 100
  29	 102
  29	 103
  29	 104
  29	 107
  29	 110
  29	 111
  29	 113
  29	 115
  29	 116
  29	 117
  30	  31
  30	  32
  30	  34
  30	  35
  30	  37
  30	  39
  30	  41
  30	  42
  30	  44
  30	  47
  30	  48
  30	  50
  30	  53
  30	  54
  30	  56
  30	  57
  30	  59
  30	  60
  30	  61
  30	  62
  30	  63
  30	  64
  30	  66
  30	  68
  30	  73
  30	  74
  30	  75
  30	  76
  30	  78
  30	  80
  30	  81
  30	  83
  30	  84
  30	  85
  30	  87
  30	  89
  30	  90
  30	  91
  30	  92
  30	  93
  30	  94
  30	  97
  30	  98
  30	 100
  30	 105
  30	 106
  30	 109
  30	 110
  30	 111
  30	 112
  30	 114
  30	 117
  30	 118
  31	  34
  31	  35
  31	  41
  31	  44
  31	  46
  31	  48
  31	  49
  31	  53
  31	  54
  31	  56
  31	  60
  31	  61
  31	  63
  31	  66
  31	  67
  31	  68
  31	  69
  31	  70
  31	  72
  31	  73
  31	  76
  31	  77
  31	  78
  31	  83
  31	  84
  31	  86
  31	  87
  31	  88
  31	  89
  31	  92
  31	  93
  31	  94
  31	  95
  31	  96
  31	  98
  31	 102
  31	 103
  31	 104
  31	 105
  31	 106
  31	 108
  31	 109
  31	 110
  31	 113
  31	 116
  31	 117
  32	  33
  32	  34
  32	  36
  32	  42
  32	  43
  32	  45
  32	  50
  32	  53
  32	  55
  32	  56
  32	  60
  32	  69
  32	  70
  32	  71
  32	  72
  32	  73
  32	  75
  32	  78
  32	  79
  32	  80
  32	  83
  32	  84
  32	  85
  32	  88
  32	  89
  32	  90
  32	  92
  32	  93
  32	  95
  32	  98
  32	  99
  32	 101
  32	 102
  32	 103
  32	 106
  32	 107
  32	 108
  32	 109
  32	 110
  32	 111
  32	 112
  32	 113
  32	 114
  32	 115
  32	 117
  33	  34
  33	  39
  33	  40
  33	  43
  33	  45
  33	  46
  33	  47
  33	  48
  33	  50
  33	  51
  33	  54
  33	  56
  33	  58
  33	  61
  33	  64
  33	  65
  33	  66
  33	  68
  33	  69
  33	  70
  33	  71
  33	  73
  33	  74
  33	  85
  33	  86
  33	  87
  33	  89
  33	  92
  33	  94
  33	  96
  33	  97
  33	 102
  33	 107
  33	 108
  33	 109
  33	 110
  33	 111
  33	 113
  33	 115
  33	 117
  33	 118
  34	  35
  34	  36
  34	  38
  34	  41
  34	  42
  34	  46
  34	  49
  34	  53
  34	  54
  34	  55
  34	  57
  34	  58
  34	  59
  34	  60
  34	  62
  34	  68
  34	  70
  34	  71
  34	  72
  34	  73
  34	  74
  34	  76
  34	  77
  34	  78
  34	  80
  34	  81
  34	  84
  34	  85
  34	  88
  34	  89
  34	  90
  34	  91
  34	  93
  34	  94
  34	  95
  34	  96
  34	  98
  34	  99
  34	 104
  34	 108
  34	 111
  34	 112
  34	 115
  34	 119
  35	  37
  35	  38
  35	  41
  35	  45
  35	  46
  35	  47
  35	  49
  35	  52
  35	  54
  35	  55
  35	  56
  35	  58
  35	  66
  35	  67
  35	  68
  35	  69
  35	  71
  35	  73
  35	  74
  35	  75
  35	  80
  35	  81
  35	  83
  35	  84
  35	  86
  35	  89
  35	  90
  35	  92
  35	 100
  35	 102
  35	 103
  35	 104
  35	 109
  35	 110
  35	 111
  35	 114
  35	 115
  35	 118
  35	 119
  36	  37
  36	  42
  36	  45
  36	  46
  36	  49
  36	  50
  36	  51
  36	  55
  36	  56
  36	  57
  36	  59
  36	  62
  36	  63
  36	  64
  36	  66
  36	  68
  36	  72
  36	  73
  36	  75
  36	  81
  36	  82
  36	  85
  36	  86
  36	  87
  36	  88
  36	  89
  36	  90
  36	  91
  36	  94
  36	  95
  36	  99
  36	 101
  36	 104
  36	 106
  36	 107
  36	 108
  36	 114
  36	 115
  36	 116
  36	 117
  36	 118
  36	 119
  37	  40
  37	  41
  37	  42
  37	  43
  37	  44
  37	  45
  37	  46
  37	  48
  37	  50
  37	  51
  37	  52
  37	  53
  37	  55
  37	  56
  37	  57
  37	  58
  37	  59
  37	  61
  37	  64
  37	  69
  37	  70
  37	  71
  37	  73
  37	  74
  37	  78
  37	  79
  37	  81
  37	  86
  37	  88
  37	  89
  37	  90
  37	  94
  37	 101
  37	 102
  37	 105
  37	 107
  37	 109
  37	 110
  37	 113
  37	 114
  37	 115
  37	 116
  37	 117
  38	  39
  38	  40
  38	  41
  38	  42
  38	  43
  38	  44
  38	  46
  38	  47
  38	  48
  38	  53
  38	  55
  38	  60
  38	  63
  38	  66
  38	  67
  38	  70
  38	  74
  38	  79
  38	  81
  38	  82
  38	  83
  38	  87
  38	  89
  38	  90
  38	  92
  38	  93
  38	  95
  38	  96
  38	  97
  38	  98
  38	 100
  38	 101
  38	 102
  38	 105
  38	 116
  38	 119
  39	  40
  39	  41
  39	  44
  39	  46
  39	  48
  39	  50
  39	  55
  39	  56
  39	  57
  39	  59
  39	  60
  39	  65
  39	  67
  39	  68
  39	  69
  39	  70
  39	  71
  39	  75
  39	  76
  39	  82
  39	  84
  39	  85
  39	  86
  39	  89
  39	  91
  39	  92
  39	  95
  39	  97
  39	 100
  39	 101
  39	 103
  39	 104
  39	 105
  39	 113
  39	 114
  39	 116
  39	 118
  39	 119
  40	  42
  40	  43
  40	  44
  40	  49
  40	  53
  40	  54
  40	  58
  40	  61
  40	  62
  40	  65
  40	  69
  40	  72
  40	  74
  40	  75
  40	  76
  40	  77
  40	  78
  40	  79
  40	  84
  40	  85
  40	  86
  40	  87
  40	  90
  40	  91
  40	  92
  40	  96
  40	 100
  40	 106
  40	 111
  40	 115
  40	 116
  40	 117
  40	 118
  41	  42
  41	  43
  41	  44
  41	  45
  41	  46
  41	  48
  41	  50
  41	  51
  41	  52
  41	  53
  41	  56
  41	  59
  41	  61
  41	  63
  41	  64
  41	  65
  41	  68
  41	  71
  41	  76
  41	  78
  41	  79
  41	  83
  41	  85
  41	  87
  41	  88
  41	  90
  41	  91
  41	  92
  41	  97
  41	  98
  41	  99
  41	 101
  41	 102
  41	 103
  41	 104
  41	 105
  41	 106
  41	 109
  41	 112
  41	 115
  41	 116
  41	 117
  41	 118
  41	 119
  42	  43
  42	  44
  42	  45
  42	  48
  42	  49
  42	  50
  42	  51
  42	  53
  42	  54
  42	  55
  42	  56
  42	  58
  42	  61
  42	  62
  42	  63
  42	  64
  42	  66
  42	  67
  42	  68
  42	  69
  42	  70
  42	  72
  42	  73
  42	  74
  42	  81
  42	  83
  42	  84
  42	  85
  42	  87
  42	  90
  42	  92
  42	  93
  42	  94
  42	  99
  42	 100
  42	 103
  42	 104
  42	 106
  42	 107
  42	 111
  42	 112
  42	 113
  42	 115
  42	 116
  42	 118
  42	 119
  43	  44
  43	  46
  43	  48
  43	  49
  43	  50
  43	  55
  43	  57
  43	  60
  43	  62
  43	  63
  43	  64
  43	  66
  43	  68
  43	  69
  43	  70
  43	  72
  43	  73
  43	  80
  43	  81
  43	  82
  43	  84
  43	  85
  43	  87
  43	  88
  43	  92
  43	  94
  43	  97
  43	 101
  43	 104
  43	 106
  43	 107
  43	 108
  43	 109
  43	 112
  44	  45
  44	  47
  44	  49
  44	  50
  44	  52
  44	  59
  44	  62
  44	  63
  44	  64
  44	  65
  44	  67
  44	  69
  44	  70
  44	  71
  44	  72
  44	  74
  44	  75
  44	  76
  44	  78
  44	  79
  44	  80
  44	  84
  44	  85
  44	  86
  44	  88
  44	  89
  44	  90
  44	  91
  44	  93
  44	  94
  44	  98
  44	  99
  44	 101
  44	 105
  44	 106
  44	 107
  44	 111
  44	 112
  44	 113
  44	 116
  44	 118
  45	  46
  45	  48
  45	  51
  45	  52
  45	  53
  45	  55
  45	  57
  45	  58
  45	  59
  45	  61
  45	  62
  45	  63
  45	  64
  45	  66
  45	  68
  45	  70
  45	  73
  45	  74
  45	  78
  45	  79
  45	  80
  45	  81
  45	  83
  45	  88
  45	  91
  45	  92
  45	  93
  45	  94
  45	  95
  45	  96
  45	  98
  45	  99
  45	 101
  45	 103
  45	 104
  45	 109
  45	 110
  45	 112
  45	 117
  45	 119
  46	  47
  46	  48
  46	  49
  46	  52
  46	  53
  46	  55
  46	  58
  46	  59
  46	  60
  46	  61
  46	  63
  46	  64
  46	  67
  46	  69
  46	  72
  46	  73
  46	  75
  46	  77
  46	  79
  46	  81
  46	  83
  46	  84
  46	  89
  46	  90
  46	  94
  46	  95
  46	  97
  46	  98
  46	 105
  46	 106
  46	 111
  46	 112
  46	 116
  46	 118
  47	  48
  47	  49
  47	  55
  47	  56
  47	  57
  47	  59
  47	  60
  47	  61
  47	  63
  47	  64
  47	  65
  47	  66
  47	  67
  47	  68
  47	  76
  47	  77
  47	  78
  47	  79
  47	  82
  47	  83
  47	  85
  47	  86
  47	  89
  47	  91
  47	  92
  47	  93
  47	  94
  47	  97
  47	  98
  47	 100
  47	 101
  47	 106
  47	 107
  47	 109
  47	 110
  47	 112
  47	 113
  47	 114
  47	 115
  48	  49
  48	  50
  48	  52
  48	  55
  48	  56
  48	  61
  48	  63
  48	  64
  48	  67
  48	  70
  48	  71
  48	  72
  48	  74
  48	  76
  48	  81
  48	  83
  48	  90
  48	  91
  48	  93
  48	  94
  48	  96
  48	  97
  48	  98
  48	 101
  48	 102
  48	 106
  48	 108
  48	 110
  48	 113
  48	 114
  48	 116
  48	 119
  49	  51
  49	  58
  49	  59
  49	  60
  49	  64
  49	  65
  49	  66
  49	  67
  49	  70
  49	  71
  49	  75
  49	  78
  49	  80
  49	  84
  49	  89
  49	  91
  49	  92
  49	  94
  49	  95
  49	  96
  49	 102
  49	 103
  49	 104
  49	 105
  49	 108
  49	 110
  49	 113
  49	 118
  49	 119
  50	  51
  50	  54
  50	  56
  50	  57
  50	  59
  50	  61
  50	  63
  50	  64
  50	  65
  50	  69
  50	  70
  50	  75
  50	  76
  50	  77
  50	  79
  50	  82
  50	  84
  50	  87
  50	  88
  50	  92
  50	  93
  50	  94
  50	  95
  50	  98
  50	  99
  50	 100
  50	 101
  50	 102
  50	 104
  50	 105
  50	 108
  50	 110
  50	 115
  50	 116
  50	 117
  50	 119
  51	  57
  51	  59
  51	  60
  51	  64
  51	  65
  51	  67
  51	  68
  51	  69
  51	  70
  51	  71
  51	  73
  51	  75
  51	  76
  51	  79
  51	  82
  51	  83
  51	  86
  51	  88
  51	  89
  51	  91
  51	  92
  51	  93
  51	  98
  51	  99
  51	 100
  51	 104
  51	 105
  51	 107
  51	 109
  51	 110
  51	 112
  51	 115
  51	 116
  51	 117
  52	  54
  52	  55
  52	  57
  52	  60
  52	  62
  52	  66
  52	  67
  52	  68
  52	  71
  52	  73
  52	  75
  52	  76
  52	  77
  52	  79
  52	  81
  52	  83
  52	  84
  52	  85
  52	  86
  52	  89
  52	  90
  52	  93
  52	  97
  52	  99
  52	 101
  52	 103
  52	 105
  52	 106
  52	 108
  52	 113
  52	 114
  52	 115
  52	 117
  52	 118
  53	  55
  53	  56
  53	  58
  53	  65
  53	  69
  53	  71
  53	  72
  53	  73
  53	  74
  53	  75
  53	  76
  53	  77
  53	  78
  53	  79
  53	  80
  53	  82
  53	  84
  53	  88
  53	  94
  53	  95
  53	  97
  53	  99
  53	 100
  53	 103
  53	 108
  53	 112
  53	 114
  53	 115
  53	 117
  54	  57
  54	  59
  54	  60
  54	  61
  54	  62
  54	  65
  54	  66
  54	  67
  54	  69
  54	  71
  54	  72
  54	  73
  54	  74
  54	  75
  54	  76
  54	  78
  54	  80
  54	  82
  54	  86
  54	  89
  54	  90
  54	  91
  54	  93
  54	  96
  54	  97
  54	 100
  54	 101
  54	 102
  54	 106
  54	 108
  54	 113
  54	 114
  55	  56
  55	  57
  55	  58
  55	  59
  55	  61
  55	  62
  55	  64
  55	  65
  55	  67
  55	  68
  55	  69
  55	  70
  55	  73
  55	  77
  55	  78
  55	  79
  55	  80
  55	  81
  55	  82
  55	  83
  55	  87
  55	  88
  55	  90
  55	  91
  55	  92
  55	  95
  55	  97
  55	 103
  55	 107
  55	 108
  55	 109
  55	 111
  55	 113
  55	 114
  55	 115
  55	 116
  55	 118
  55	 119
  56	  59
  56	  60
  56	  63
  56	  65
  56	  66
  56	  70
  56	  75
  56	  76
  56	  77
  56	  78
  56	  81
  56	  82
  56	  83
  56	  87
  56	  91
  56	  92
  56	  94
  56	  96
  56	  97
  56	  98
  56	 100
  56	 105
  56	 106
  56	 108
  56	 111
  56	 113
  56	 115
  56	 117
  56	 119
  57	  59
  57	  60
  57	  61
  57	  62
  57	  64
  57	  65
  57	  67
  57	  69
  57	  71
  57	  74
  57	  75
  57	  77
  57	  78
  57	  79
  57	  81
  57	  82
  57	  84
  57	  92
  57	  93
  57	  94
  57	  95
  57	  97
  57	  99
  57	 101
  57	 102
  57	 103
  57	 104
  57	 106
  57	 107
  57	 111
  57	 112
  57	 113
  57	 114
  57	 116
  57	 118
  57	 119
  58	  62
  58	  63
  58	  64
  58	  65
  58	  66
  58	  67
  58	  69
  58	  72
  58	  74
  58	  75
  58	  76
  58	  78
  58	  79
  58	  80
  58	  81
  58	  82
  58	  84
  58	  85
  58	  86
  58	  89
  58	  90
  58	  91
  58	  92
  58	  94
  58	  97
  58	  98
  58	 100
  58	 101
  58	 103
  58	 105
  58	 106
  58	 108
  58	 112
  58	 113
  58	 117
  58	 119
  59	  63
  59	  64
  59	  68
  59	  72
  59	  73
  59	  74
  59	  75
  59	  77
  59	  80
  59	  81
  59	  84
  59	  85
  59	  86
  59	  87
  59	  91
  59	  93
  59	  94
  59	  97
  59	 100
  59	 101
  59	 102
  59	 103
  59	 105
  59	 106
  59	 108
  59	 111
  59	 113
  59	 114
  59	 115
  59	 116
  59	 117
  60	  62
  60	  63
  60	  64
  60	  67
  60	  68
  60	  70
  60	  71
  60	  73
  60	  75
  60	  76
  60	  77
  60	  78
  60	  79
  60	  82
  60	  84
  60	  85
  60	  86
  60	  87
  60	  89
  60	  92
  60	  93
  60	  95
  60	  97
  60	  99
  60	 100
  60	 102
  60	 103
  60	 104
  60	 105
  60	 106
  60	 109
  60	 110
  60	 115
  60	 116
  60	 118
  61	  62
  61	  63
  61	  64
  61	  69
  61	  71
  61	  80
  61	  81
  61	  82
  61	  83
  61	  85
  61	  89
  61	  90
  61	  91
  61	  94
  61	  95
  61	  97
  61	  99
  61	 100
  61	 105
  61	 115
  62	  63
  62	  64
  62	  66
  62	  68
  62	  70
  62	  71
  62	  72
  62	  73
  62	  75
  62	  78
  62	  79
  62	  80
  62	  82
  62	  84
  62	  85
  62	  87
  62	  88
  62	  89
  62	  91
  62	 101
  62	 102
  62	 105
  62	 106
  62	 107
  62	 108
  62	 109
  62	 110
  62	 111
  62	 113
  62	 114
  62	 115
  62	 116
  62	 118
  63	  64
  63	  65
  63	  68
  63	  69
  63	  72
  63	  74
  63	  76
  63	  77
  63	  78
  63	  80
  63	  81
  63	  83
  63	  85
  63	  91
  63	  94
  63	 101
  63	 102
  63	 103
  63	 105
  63	 111
  63	 114
  63	 115
  63	 119
  64	  69
  64	  70
  64	  71
  64	  72
  64	  73
  64	  74
  64	  77
  64	  79
  64	  81
  64	  82
  64	  83
  64	  87
  64	  88
  64	  91
  64	  92
  64	  93
  64	  95
  64	  99
  64	 100
  64	 105
  64	 107
  64	 108
  64	 109
  64	 111
  64	 112
  64	 113
  64	 114
  64	 118
  65	  69
  65	  70
  65	  71
  65	  72
  65	  74
  65	  78
  65	  81
  65	  86
  65	  87
  65	  88
  65	  89
  65	  90
  65	  91
  65	  93
  65	  94
  65	  95
  65	  97
  65	  98
  65	 100
  65	 104
  65	 105
  65	 107
  65	 108
  65	 109
  65	 110
  65	 113
  65	 114
  65	 115
  65	 116
  65	 118
  65	 119
  66	  68
  66	  70
  66	  71
  66	  75
  66	  77
  66	  78
  66	  79
  66	  82
  66	  83
  66	  84
  66	  86
  66	  87
  66	  88
  66	  95
  66	  97
  66	 100
  66	 102
  66	 107
  66	 108
  66	 109
  66	 110
  66	 112
  66	 113
  66	 114
  66	 117
  66	 119
  67	  68
  67	  69
  67	  71
  67	  73
  67	  74
  67	  75
  67	  80
  67	  82
  67	  84
  67	  85
  67	  87
  67	  88
  67	  89
  67	  91
  67	  92
  67	  93
  67	  95
  67	  96
  67	  98
  67	  99
  67	 100
  67	 103
  67	 105
  67	 107
  67	 108
  67	 110
  67	 112
  67	 113
  67	 117
  67	 118
  68	  70
  68	  72
  68	  74
  68	  75
  68	  79
  68	  81
  68	  83
  68	  84
  68	  85
  68	  87
  68	  88
  68	  89
  68	  91
  68	  94
  68	  95
  68	  98
  68	 101
  68	 103
  68	 104
  68	 107
  68	 108
  68	 109
  68	 110
  68	 113
  68	 114
  68	 115
  68	 116
  68	 117
  68	 118
  69	  70
  69	  73
  69	  76
  69	  79
  69	  82
  69	  83
  69	  85
  69	  86
  69	  87
  69	  88
  69	  89
  69	  90
  69	  91
  69	  94
  69	  95
  69	  99
  69	 100
  69	 103
  69	 104
  69	 107
  69	 109
  69	 111
  69	 112
  69	 118
  70	  71
  70	  72
  70	  74
  70	  75
  70	  76
  70	  79
  70	  83
  70	  86
  70	  89
  70	  90
  70	  91
  70	  92
  70	  94
  70	  95
  70	  96
  70	  98
  70	 100
  70	 101
  70	 102
  70	 107
  70	 110
  70	 112
  70	 113
  70	 118
  70	 119
  71	  72
  71	  74
  71	  75
  71	  76
  71	  77
  71	  78
  71	  80
  71	  82
  71	  84
  71	  85
  71	  87
  71	  88
  71	  89
  71	  93
  71	  95
  71	  97
  71	  98
  71	 100
  71	 101
  71	 102
  71	 105
  71	 109
  71	 110
  71	 111
  71	 112
  71	 113
  71	 115
  71	 117
  72	  73
  72	  74
  72	  76
  72	  77
  72	  78
  72	  79
  72	  81
  72	  84
  72	  85
  72	  87
  72	  88
  72	  89
  72	  90
  72	  91
  72	  92
  72	  99
  72	 100
  72	 101
  72	 102
  72	 104
  72	 107
  72	 108
  72	 111
  72	 119
  73	  76
  73	  78
  73	  79
  73	  80
  73	  82
  73	  83
  73	  84
  73	  86
  73	  87
  73	  93
  73	  95
  73	  96
  73	  97
  73	  99
  73	 102
  73	 103
  73	 105
  73	 106
  73	 107
  73	 108
  73	 109
  73	 110
  73	 112
  73	 113
  73	 114
  73	 115
  73	 118
  74	  75
  74	  82
  74	  84
  74	  85
  74	  86
  74	  87
  74	  91
  74	  93
  74	  95
  74	  96
  74	  97
  74	  98
  74	  99
  74	 101
  74	 103
  74	 104
  74	 107
  74	 108
  74	 109
  74	 110
  74	 111
  74	 112
  74	 113
  74	 114
  74	 115
  74	 116
  74	 117
  74	 118
  75	  78
  75	  83
  75	  89
  75	  90
  75	  93
  75	  94
  75	  95
  75	  97
  75	  98
  75	  99
  75	 101
  75	 102
  75	 103
  75	 105
  75	 106
  75	 107
  75	 110
  75	 112
  75	 113
  75	 114
  75	 115
  75	 116
  75	 118
  75	 119
  76	  77
  76	  80
  76	  82
  76	  83
  76	  84
  76	  87
  76	  89
  76	  91
  76	  92
  76	  93
  76	  99
  76	 100
  76	 106
  76	 109
  76	 111
  76	 112
  76	 114
  76	 115
  76	 116
  76	 119
  77	  78
  77	  82
  77	  83
  77	  84
  77	  85
  77	  88
  77	  93
  77	  96
  77	  98
  77	 101
  77	 102
  77	 103
  77	 105
  77	 108
  77	 109
  77	 114
  77	 116
  77	 117
  77	 119
  78	  80
  78	  82
  78	  83
  78	  88
  78	  90
  78	  92
  78	  93
  78	  95
  78	  96
  78	  97
  78	  98
  78	 100
  78	 102
  78	 104
  78	 105
  78	 106
  78	 107
  78	 111
  78	 112
  78	 114
  78	 115
  78	 116
  78	 118
  79	  82
  79	  84
  79	  85
  79	  90
  79	  96
  79	  97
  79	  98
  79	  99
  79	 101
  79	 102
  79	 104
  79	 108
  79	 112
  79	 115
  79	 117
  79	 118
  79	 119
  80	  82
  80	  83
  80	  85
  80	  87
  80	  91
  80	  92
  80	  93
  80	  95
  80	  96
  80	  97
  80	  99
  80	 101
  80	 103
  80	 104
  80	 105
  80	 107
  80	 108
  80	 110
  80	 111
  80	 116
  80	 117
  80	 118
  81	  84
  81	  85
  81	  86
  81	  90
  81	  92
  81	  93
  81	  94
  81	  96
  81	  97
  81	  98
  81	  99
  81	 100
  81	 104
  81	 105
  81	 115
  81	 116
  81	 118
  81	 119
  82	  86
  82	  87
  82	  91
  82	  93
  82	  95
  82	 100
  82	 103
  82	 105
  82	 108
  82	 111
  82	 113
  82	 114
  82	 118
  82	 119
  83	  84
  83	  85
  83	  86
  83	  88
  83	  89
  83	  90
  83	  92
  83	  94
  83	  95
  83	  96
  83	  98
  83	  99
  83	 100
  83	 102
  83	 103
  83	 104
  83	 106
  83	 108
  83	 110
  83	 111
  83	 113
  83	 118
  84	  85
  84	  86
  84	  88
  84	  89
  84	  90
  84	  91
  84	  92
  84	  98
  84	 103
  84	 104
  84	 106
  84	 108
  84	 113
  84	 115
  84	 116
  84	 117
  84	 119
  85	  89
  85	  92
  85	  99
  85	 100
  85	 103
  85	 107
  85	 108
  85	 110
  85	 112
  85	 117
  85	 119
  86	  88
  86	  89
  86	  92
  86	  98
  86	  99
  86	 100
  86	 101
  86	 102
  86	 104
  86	 107
  86	 108
  86	 109
  86	 113
  86	 115
  86	 116
  86	 118
  86	 119
  87	  90
  87	  92
  87	  95
  87	  98
  87	  99
  87	 102
  87	 105
  87	 106
  87	 108
  87	 109
  87	 113
  87	 115
  87	 117
  87	 118
  87	 119
  88	  90
  88	  91
  88	  93
  88	  96
  88	  98
  88	  99
  88	 100
  88	 105
  88	 106
  88	 107
  88	 108
  88	 109
  88	 110
  88	 111
  88	 112
  88	 113
  88	 117
  89	  90
  89	  91
  89	  92
  89	  93
  89	  94
  89	  95
  89	  96
  89	  97
  89	  99
  89	 100
  89	 103
  89	 106
  89	 108
  89	 110
  89	 111
  89	 116
  90	  91
  90	  93
  90	  95
  90	  96
  90	  97
  90	  98
  90	  99
  90	 101
  90	 104
  90	 105
  90	 107
  90	 108
  90	 115
  90	 119
  91	  92
  91	  93
  91	  94
  91	  96
  91	  99
  91	 103
  91	 104
  91	 105
  91	 106
  91	 109
  91	 111
  91	 116
  91	 118
  91	 119
  92	  95
  92	  96
  92	  97
  92	  98
  92	  99
  92	 100
  92	 101
  92	 102
  92	 105
  92	 106
  92	 108
  92	 109
  92	 111
  92	 113
  92	 114
  92	 115
  92	 117
  92	 118
  93	  95
  93	  96
  93	  97
  93	  98
  93	  99
  93	 101
  93	 103
  93	 104
  93	 108
  93	 109
  93	 111
  93	 112
  93	 116
  93	 117
  93	 118
  94	  95
  94	  98
  94	 100
  94	 105
  94	 106
  94	 107
  94	 108
  94	 109
  94	 111
  94	 112
  94	 116
  95	  98
  95	  99
  95	 100
  95	 104
  95	 105
  95	 109
  95	 111
  95	 112
  95	 115
  95	 117
  95	 118
  95	 119
  96	  97
  96	  98
  96	 102
  96	 106
  96	 107
  96	 112
  96	 113
  96	 114
  96	 117
  96	 118
  97	  99
  97	 101
  97	 102
  97	 103
  97	 104
  97	 105
  97	 108
  97	 109
  97	 111
  97	 115
  97	 116
  97	 117
  97	 118
  98	  99
  98	 100
  98	 104
  98	 105
  98	 106
  98	 107
  98	 109
  98	 110
  98	 113
  98	 114
  98	 116
  98	 118
  99	 105
  99	 106
  99	 114
  99	 116
  99	 118
  99	 119
 100	 101
 100	 102
 100	 103
 100	 105
 100	 106
 100	 109
 100	 110
 100	 111
 100	 115
 100	 116
 100	 117
 101	 104
 101	 111
 101	 114
 101	 116
 101	 117
 101	 118
 101	 119
 102	 104
 102	 105
 102	 106
 102	 107
 102	 108
 102	 113
 102	 117
 102	 118
 102	 119
 103	 105
 103	 106
 103	 108
 103	 110
 103	 115
 103	 116
 103	 117
 103	 118
 103	 119
 104	 105
 104	 107
 104	 109
 104	 110
 104	 113
 104	 114
 104	 116
 104	 119
 105	 106
 105	 107
 105	 108
 105	 109
 105	 113
 105	 115
 105	 117
 105	 119
 106	 107
 106	 109
 106	 110
 106	 114
 106	 116
 106	 117
 106	 119
 107	 110
 107	 112
 107	 113
 107	 114
 107	 116
 107	 117
 107	 118
 107	 119
 108	 109
 108	 110
 108	 113
 108	 115
 108	 116
 109	 111
 109	 112
 109	 113
 109	 114
 109	 115
 109	 116
 109	 118
 109	 119
 110	 112
 110	 114
 110	 117
 110	 119
 111	 113
 111	 114
 111	 116
 111	 117
 112	 114
 112	 115
 112	 117
 112	 118
 112	 119
 113	 114
 113	 116
 114	 115
 114	 119
 115	 116
 115	 117
 115	 118
 115	 119
 116	 119
;
